TCS_Benchmarks/redos_fix/regexlib2_output_distinct_1192_1191_29_0.smt2
(set-logic QF_S)
(declare-const x String)
(assert (str.in.re x (re.inter (re.+  (re.union  (str.to.re "\u{5d}") (re.union (re.range "\u{30}" "\u{39}") (re.union  (str.to.re "\u{5b}") (re.union (re.range "\u{61}" "\u{7a}")  (str.to.re "\u{5f}"))))) ) (re.opt  (re.++ (re.opt  (str.to.re "\u{3d}") ) (re.*  (re.union  (str.to.re "\u{3b}") (re.union (re.range "\u{30}" "\u{39}") (re.union (re.range "\u{61}" "\u{7a}")  (str.to.re "\u{5f}")))) )) ) )))
(check-sat)
(get-model)