TCS_Benchmarks/redos_fix/regexlib2_output_distinct_1192_1191_29_0.txt
[\]0-9\[a-z_]+
(\=?[;0-9a-z_]*)?